data;
set V := 1 2 3 4 5 6 7 8 9 10 11 12 13 14 15 16 17 18 19 20 21 22 23 24 25;
set E :=
	(1,7)
	(7,1)
	(1,13)
	(13,1)
	(1,19)
	(19,1)
	(1,25)
	(25,1)
	(1,2)
	(2,1)
	(1,3)
	(3,1)
	(1,4)
	(4,1)
	(1,5)
	(5,1)
	(1,6)
	(6,1)
	(1,11)
	(11,1)
	(1,16)
	(16,1)
	(1,21)
	(21,1)
	(2,8)
	(8,2)
	(2,14)
	(14,2)
	(2,20)
	(20,2)
	(2,6)
	(6,2)
	(2,3)
	(3,2)
	(2,4)
	(4,2)
	(2,5)
	(5,2)
	(2,7)
	(7,2)
	(2,12)
	(12,2)
	(2,17)
	(17,2)
	(2,22)
	(22,2)
	(2,1)
	(1,2)
	(3,9)
	(9,3)
	(3,15)
	(15,3)
	(3,7)
	(7,3)
	(3,11)
	(11,3)
	(3,4)
	(4,3)
	(3,5)
	(5,3)
	(3,8)
	(8,3)
	(3,13)
	(13,3)
	(3,18)
	(18,3)
	(3,23)
	(23,3)
	(3,2)
	(2,3)
	(3,1)
	(1,3)
	(4,10)
	(10,4)
	(4,8)
	(8,4)
	(4,12)
	(12,4)
	(4,16)
	(16,4)
	(4,5)
	(5,4)
	(4,9)
	(9,4)
	(4,14)
	(14,4)
	(4,19)
	(19,4)
	(4,24)
	(24,4)
	(4,3)
	(3,4)
	(4,2)
	(2,4)
	(4,1)
	(1,4)
	(5,9)
	(9,5)
	(5,13)
	(13,5)
	(5,17)
	(17,5)
	(5,21)
	(21,5)
	(5,10)
	(10,5)
	(5,15)
	(15,5)
	(5,20)
	(20,5)
	(5,25)
	(25,5)
	(5,4)
	(4,5)
	(5,3)
	(3,5)
	(5,2)
	(2,5)
	(5,1)
	(1,5)
	(6,12)
	(12,6)
	(6,18)
	(18,6)
	(6,24)
	(24,6)
	(6,7)
	(7,6)
	(6,8)
	(8,6)
	(6,9)
	(9,6)
	(6,10)
	(10,6)
	(6,11)
	(11,6)
	(6,16)
	(16,6)
	(6,21)
	(21,6)
	(6,2)
	(2,6)
	(6,1)
	(1,6)
	(7,13)
	(13,7)
	(7,19)
	(19,7)
	(7,25)
	(25,7)
	(7,11)
	(11,7)
	(7,8)
	(8,7)
	(7,9)
	(9,7)
	(7,10)
	(10,7)
	(7,12)
	(12,7)
	(7,17)
	(17,7)
	(7,22)
	(22,7)
	(7,6)
	(6,7)
	(7,3)
	(3,7)
	(7,2)
	(2,7)
	(7,1)
	(1,7)
	(8,14)
	(14,8)
	(8,20)
	(20,8)
	(8,12)
	(12,8)
	(8,16)
	(16,8)
	(8,9)
	(9,8)
	(8,10)
	(10,8)
	(8,13)
	(13,8)
	(8,18)
	(18,8)
	(8,23)
	(23,8)
	(8,7)
	(7,8)
	(8,6)
	(6,8)
	(8,4)
	(4,8)
	(8,3)
	(3,8)
	(8,2)
	(2,8)
	(9,15)
	(15,9)
	(9,13)
	(13,9)
	(9,17)
	(17,9)
	(9,21)
	(21,9)
	(9,10)
	(10,9)
	(9,14)
	(14,9)
	(9,19)
	(19,9)
	(9,24)
	(24,9)
	(9,8)
	(8,9)
	(9,7)
	(7,9)
	(9,6)
	(6,9)
	(9,5)
	(5,9)
	(9,4)
	(4,9)
	(9,3)
	(3,9)
	(10,14)
	(14,10)
	(10,18)
	(18,10)
	(10,22)
	(22,10)
	(10,15)
	(15,10)
	(10,20)
	(20,10)
	(10,25)
	(25,10)
	(10,9)
	(9,10)
	(10,8)
	(8,10)
	(10,7)
	(7,10)
	(10,6)
	(6,10)
	(10,5)
	(5,10)
	(10,4)
	(4,10)
	(11,17)
	(17,11)
	(11,23)
	(23,11)
	(11,12)
	(12,11)
	(11,13)
	(13,11)
	(11,14)
	(14,11)
	(11,15)
	(15,11)
	(11,16)
	(16,11)
	(11,21)
	(21,11)
	(11,7)
	(7,11)
	(11,6)
	(6,11)
	(11,3)
	(3,11)
	(11,1)
	(1,11)
	(12,18)
	(18,12)
	(12,24)
	(24,12)
	(12,16)
	(16,12)
	(12,13)
	(13,12)
	(12,14)
	(14,12)
	(12,15)
	(15,12)
	(12,17)
	(17,12)
	(12,22)
	(22,12)
	(12,11)
	(11,12)
	(12,8)
	(8,12)
	(12,7)
	(7,12)
	(12,6)
	(6,12)
	(12,4)
	(4,12)
	(12,2)
	(2,12)
	(13,19)
	(19,13)
	(13,25)
	(25,13)
	(13,17)
	(17,13)
	(13,21)
	(21,13)
	(13,14)
	(14,13)
	(13,15)
	(15,13)
	(13,18)
	(18,13)
	(13,23)
	(23,13)
	(13,12)
	(12,13)
	(13,11)
	(11,13)
	(13,9)
	(9,13)
	(13,8)
	(8,13)
	(13,7)
	(7,13)
	(13,5)
	(5,13)
	(13,3)
	(3,13)
	(13,1)
	(1,13)
	(14,20)
	(20,14)
	(14,18)
	(18,14)
	(14,22)
	(22,14)
	(14,15)
	(15,14)
	(14,19)
	(19,14)
	(14,24)
	(24,14)
	(14,13)
	(13,14)
	(14,12)
	(12,14)
	(14,11)
	(11,14)
	(14,10)
	(10,14)
	(14,9)
	(9,14)
	(14,8)
	(8,14)
	(14,4)
	(4,14)
	(14,2)
	(2,14)
	(15,19)
	(19,15)
	(15,23)
	(23,15)
	(15,20)
	(20,15)
	(15,25)
	(25,15)
	(15,14)
	(14,15)
	(15,13)
	(13,15)
	(15,12)
	(12,15)
	(15,11)
	(11,15)
	(15,10)
	(10,15)
	(15,9)
	(9,15)
	(15,5)
	(5,15)
	(15,3)
	(3,15)
	(16,22)
	(22,16)
	(16,17)
	(17,16)
	(16,18)
	(18,16)
	(16,19)
	(19,16)
	(16,20)
	(20,16)
	(16,21)
	(21,16)
	(16,12)
	(12,16)
	(16,11)
	(11,16)
	(16,8)
	(8,16)
	(16,6)
	(6,16)
	(16,4)
	(4,16)
	(16,1)
	(1,16)
	(17,23)
	(23,17)
	(17,21)
	(21,17)
	(17,18)
	(18,17)
	(17,19)
	(19,17)
	(17,20)
	(20,17)
	(17,22)
	(22,17)
	(17,16)
	(16,17)
	(17,13)
	(13,17)
	(17,12)
	(12,17)
	(17,11)
	(11,17)
	(17,9)
	(9,17)
	(17,7)
	(7,17)
	(17,5)
	(5,17)
	(17,2)
	(2,17)
	(18,24)
	(24,18)
	(18,22)
	(22,18)
	(18,19)
	(19,18)
	(18,20)
	(20,18)
	(18,23)
	(23,18)
	(18,17)
	(17,18)
	(18,16)
	(16,18)
	(18,14)
	(14,18)
	(18,13)
	(13,18)
	(18,12)
	(12,18)
	(18,10)
	(10,18)
	(18,8)
	(8,18)
	(18,6)
	(6,18)
	(18,3)
	(3,18)
	(19,25)
	(25,19)
	(19,23)
	(23,19)
	(19,20)
	(20,19)
	(19,24)
	(24,19)
	(19,18)
	(18,19)
	(19,17)
	(17,19)
	(19,16)
	(16,19)
	(19,15)
	(15,19)
	(19,14)
	(14,19)
	(19,13)
	(13,19)
	(19,9)
	(9,19)
	(19,7)
	(7,19)
	(19,4)
	(4,19)
	(19,1)
	(1,19)
	(20,24)
	(24,20)
	(20,25)
	(25,20)
	(20,19)
	(19,20)
	(20,18)
	(18,20)
	(20,17)
	(17,20)
	(20,16)
	(16,20)
	(20,15)
	(15,20)
	(20,14)
	(14,20)
	(20,10)
	(10,20)
	(20,8)
	(8,20)
	(20,5)
	(5,20)
	(20,2)
	(2,20)
	(21,22)
	(22,21)
	(21,23)
	(23,21)
	(21,24)
	(24,21)
	(21,25)
	(25,21)
	(21,17)
	(17,21)
	(21,16)
	(16,21)
	(21,13)
	(13,21)
	(21,11)
	(11,21)
	(21,9)
	(9,21)
	(21,6)
	(6,21)
	(21,5)
	(5,21)
	(21,1)
	(1,21)
	(22,23)
	(23,22)
	(22,24)
	(24,22)
	(22,25)
	(25,22)
	(22,21)
	(21,22)
	(22,18)
	(18,22)
	(22,17)
	(17,22)
	(22,16)
	(16,22)
	(22,14)
	(14,22)
	(22,12)
	(12,22)
	(22,10)
	(10,22)
	(22,7)
	(7,22)
	(22,2)
	(2,22)
	(23,24)
	(24,23)
	(23,25)
	(25,23)
	(23,22)
	(22,23)
	(23,21)
	(21,23)
	(23,19)
	(19,23)
	(23,18)
	(18,23)
	(23,17)
	(17,23)
	(23,15)
	(15,23)
	(23,13)
	(13,23)
	(23,11)
	(11,23)
	(23,8)
	(8,23)
	(23,3)
	(3,23)
	(24,25)
	(25,24)
	(24,23)
	(23,24)
	(24,22)
	(22,24)
	(24,21)
	(21,24)
	(24,20)
	(20,24)
	(24,19)
	(19,24)
	(24,18)
	(18,24)
	(24,14)
	(14,24)
	(24,12)
	(12,24)
	(24,9)
	(9,24)
	(24,6)
	(6,24)
	(24,4)
	(4,24)
	(25,24)
	(24,25)
	(25,23)
	(23,25)
	(25,22)
	(22,25)
	(25,21)
	(21,25)
	(25,20)
	(20,25)
	(25,19)
	(19,25)
	(25,15)
	(15,25)
	(25,13)
	(13,25)
	(25,10)
	(10,25)
	(25,7)
	(7,25)
	(25,5)
	(5,25)
	(25,1)
	(1,25);
end;
